p cnf 196 1
196 0
w 1 0.860939
w 2 1 0.353328
w 2 -1 0.866861
w 3 2 0.379576
w 3 -2 0.397425
w 4 3 0.913996
w 4 -3 0.659016
w 5 4 1
w 5 -4 0
w 6 5 0
w 6 -5 1
w 7 6 0.0189044
w 7 -6 0.397498
w 8 7 0.43277
w 8 -7 0.154733
w 9 8 0
w 9 -8 1
w 10 9 0.664448
w 10 -9 0.024923
w 11 10 0.932599
w 11 -10 0.828858
w 12 11 0.394653
w 12 -11 0.517575
w 13 12 0.268214
w 13 -12 0.870903
w 14 13 0.793253
w 14 -13 0.250479
w 15 1 0.411786
w 15 -1 0.164475
w 16 15 2 0.721932
w 16 15 -2 0.0656192
w 16 -15 2 0.823249
w 16 -15 -2 0.9256
w 17 16 3 0.842153
w 17 16 -3 0.323098
w 17 -16 3 0.311007
w 17 -16 -3 0.274923
w 18 17 4 1
w 18 17 -4 0
w 18 -17 4 1
w 18 -17 -4 1
w 19 18 5 0.855922
w 19 18 -5 0.914018
w 19 -18 5 0.421718
w 19 -18 -5 0.695475
w 20 19 6 0
w 20 19 -6 0
w 20 -19 6 0
w 20 -19 -6 1
w 21 20 7 0.370139
w 21 20 -7 0.0606746
w 21 -20 7 0.928099
w 21 -20 -7 0.781925
w 22 21 8 0
w 22 21 -8 0
w 22 -21 8 1
w 22 -21 -8 0
w 23 22 9 0
w 23 22 -9 1
w 23 -22 9 0
w 23 -22 -9 0
w 24 23 10 1
w 24 23 -10 0
w 24 -23 10 0
w 24 -23 -10 1
w 25 24 11 0.653013
w 25 24 -11 0.195683
w 25 -24 11 0.608645
w 25 -24 -11 0.074731
w 26 25 12 0.917316
w 26 25 -12 0.0140236
w 26 -25 12 0.287124
w 26 -25 -12 0.494202
w 27 26 13 0.250444
w 27 26 -13 0.864341
w 27 -26 13 0.884894
w 27 -26 -13 0.178543
w 28 27 14 0.110043
w 28 27 -14 0.730436
w 28 -27 14 0.150123
w 28 -27 -14 0.400812
w 29 15 0
w 29 -15 1
w 30 29 16 1
w 30 29 -16 0
w 30 -29 16 1
w 30 -29 -16 1
w 31 30 17 0.595488
w 31 30 -17 0.875246
w 31 -30 17 0.902281
w 31 -30 -17 0.290115
w 32 31 18 0.0979634
w 32 31 -18 0.89876
w 32 -31 18 0.602991
w 32 -31 -18 0.989121
w 33 32 19 0.617014
w 33 32 -19 0.276246
w 33 -32 19 0.310277
w 33 -32 -19 0.441234
w 34 33 20 0.174618
w 34 33 -20 0.326127
w 34 -33 20 0.705233
w 34 -33 -20 0.820883
w 35 34 21 1
w 35 34 -21 0
w 35 -34 21 0
w 35 -34 -21 1
w 36 35 22 0.323025
w 36 35 -22 0.864122
w 36 -35 22 0.88272
w 36 -35 -22 0.205305
w 37 36 23 0.44524
w 37 36 -23 0.800793
w 37 -36 23 0.55446
w 37 -36 -23 0.347521
w 38 37 24 1
w 38 37 -24 1
w 38 -37 24 0
w 38 -37 -24 0
w 39 38 25 1
w 39 38 -25 1
w 39 -38 25 0
w 39 -38 -25 0
w 40 39 26 0.237541
w 40 39 -26 0.290638
w 40 -39 26 0.0700858
w 40 -39 -26 0.942774
w 41 40 27 0
w 41 40 -27 1
w 41 -40 27 0
w 41 -40 -27 1
w 42 41 28 0.633112
w 42 41 -28 0.666264
w 42 -41 28 0.783813
w 42 -41 -28 0.515832
w 43 29 0.463026
w 43 -29 0.961072
w 44 43 30 0.0174866
w 44 43 -30 0.308593
w 44 -43 30 0.76327
w 44 -43 -30 0.100206
w 45 44 31 0.752937
w 45 44 -31 0.785917
w 45 -44 31 0.188683
w 45 -44 -31 0.55868
w 46 45 32 1
w 46 45 -32 0
w 46 -45 32 0
w 46 -45 -32 1
w 47 46 33 0.902686
w 47 46 -33 0.0798485
w 47 -46 33 0.0768582
w 47 -46 -33 0.408943
w 48 47 34 1
w 48 47 -34 1
w 48 -47 34 0
w 48 -47 -34 0
w 49 48 35 1
w 49 48 -35 1
w 49 -48 35 1
w 49 -48 -35 0
w 50 49 36 0
w 50 49 -36 1
w 50 -49 36 1
w 50 -49 -36 1
w 51 50 37 0.33207
w 51 50 -37 0.478584
w 51 -50 37 0.528432
w 51 -50 -37 0.520753
w 52 51 38 0
w 52 51 -38 1
w 52 -51 38 0
w 52 -51 -38 0
w 53 52 39 0.677301
w 53 52 -39 0.352361
w 53 -52 39 0.63721
w 53 -52 -39 0.754159
w 54 53 40 0.0955012
w 54 53 -40 0.913544
w 54 -53 40 0.513485
w 54 -53 -40 0.473484
w 55 54 41 0.931931
w 55 54 -41 0.635279
w 55 -54 41 0.0143676
w 55 -54 -41 0.221946
w 56 55 42 0
w 56 55 -42 0
w 56 -55 42 0
w 56 -55 -42 1
w 57 43 0.19383
w 57 -43 0.388553
w 58 57 44 0
w 58 57 -44 0
w 58 -57 44 1
w 58 -57 -44 1
w 59 58 45 1
w 59 58 -45 0
w 59 -58 45 0
w 59 -58 -45 0
w 60 59 46 0
w 60 59 -46 1
w 60 -59 46 1
w 60 -59 -46 1
w 61 60 47 0.898425
w 61 60 -47 0.188825
w 61 -60 47 0.799187
w 61 -60 -47 0.533705
w 62 61 48 1
w 62 61 -48 1
w 62 -61 48 0
w 62 -61 -48 1
w 63 62 49 0.34872
w 63 62 -49 0.115426
w 63 -62 49 0.341141
w 63 -62 -49 0.54255
w 64 63 50 0.514498
w 64 63 -50 0.257133
w 64 -63 50 0.929797
w 64 -63 -50 0.304929
w 65 64 51 0
w 65 64 -51 0
w 65 -64 51 1
w 65 -64 -51 1
w 66 65 52 0
w 66 65 -52 1
w 66 -65 52 1
w 66 -65 -52 0
w 67 66 53 0.358526
w 67 66 -53 0.737039
w 67 -66 53 0.12351
w 67 -66 -53 0.157713
w 68 67 54 0
w 68 67 -54 1
w 68 -67 54 0
w 68 -67 -54 0
w 69 68 55 0
w 69 68 -55 1
w 69 -68 55 0
w 69 -68 -55 1
w 70 69 56 0.00370946
w 70 69 -56 0.616405
w 70 -69 56 0.962065
w 70 -69 -56 0.933506
w 71 57 0.354067
w 71 -57 0.00108337
w 72 71 58 0
w 72 71 -58 1
w 72 -71 58 1
w 72 -71 -58 0
w 73 72 59 1
w 73 72 -59 0
w 73 -72 59 0
w 73 -72 -59 0
w 74 73 60 1
w 74 73 -60 0
w 74 -73 60 0
w 74 -73 -60 0
w 75 74 61 0.534201
w 75 74 -61 0.17453
w 75 -74 61 0.523687
w 75 -74 -61 0.696583
w 76 75 62 0.625594
w 76 75 -62 0.401514
w 76 -75 62 0.677969
w 76 -75 -62 0.241999
w 77 76 63 1
w 77 76 -63 0
w 77 -76 63 0
w 77 -76 -63 1
w 78 77 64 0.155946
w 78 77 -64 0.496301
w 78 -77 64 0.23357
w 78 -77 -64 0.00791896
w 79 78 65 0.32871
w 79 78 -65 0.698506
w 79 -78 65 0.102271
w 79 -78 -65 0.782376
w 80 79 66 0
w 80 79 -66 0
w 80 -79 66 1
w 80 -79 -66 0
w 81 80 67 0
w 81 80 -67 1
w 81 -80 67 0
w 81 -80 -67 0
w 82 81 68 1
w 82 81 -68 0
w 82 -81 68 1
w 82 -81 -68 1
w 83 82 69 0.212525
w 83 82 -69 0.322217
w 83 -82 69 0.142038
w 83 -82 -69 0.930171
w 84 83 70 0.771739
w 84 83 -70 0.0861165
w 84 -83 70 0.431077
w 84 -83 -70 0.00530885
w 85 71 1
w 85 -71 0
w 86 85 72 0
w 86 85 -72 0
w 86 -85 72 0
w 86 -85 -72 1
w 87 86 73 0.510152
w 87 86 -73 0.743178
w 87 -86 73 0.0780485
w 87 -86 -73 0.694134
w 88 87 74 0
w 88 87 -74 1
w 88 -87 74 1
w 88 -87 -74 0
w 89 88 75 0
w 89 88 -75 1
w 89 -88 75 0
w 89 -88 -75 0
w 90 89 76 1
w 90 89 -76 0
w 90 -89 76 0
w 90 -89 -76 1
w 91 90 77 1
w 91 90 -77 0
w 91 -90 77 0
w 91 -90 -77 0
w 92 91 78 0.410228
w 92 91 -78 0.240664
w 92 -91 78 0.112542
w 92 -91 -78 0.526623
w 93 92 79 0
w 93 92 -79 0
w 93 -92 79 0
w 93 -92 -79 1
w 94 93 80 0.233118
w 94 93 -80 0.880888
w 94 -93 80 0.783556
w 94 -93 -80 0.674832
w 95 94 81 0
w 95 94 -81 1
w 95 -94 81 1
w 95 -94 -81 0
w 96 95 82 1
w 96 95 -82 1
w 96 -95 82 1
w 96 -95 -82 0
w 97 96 83 0.380436
w 97 96 -83 0.24235
w 97 -96 83 0.320897
w 97 -96 -83 0.456645
w 98 97 84 0.0681472
w 98 97 -84 0.866872
w 98 -97 84 0.931136
w 98 -97 -84 0.180689
w 99 85 0
w 99 -85 1
w 100 99 86 0
w 100 99 -86 1
w 100 -99 86 1
w 100 -99 -86 1
w 101 100 87 0
w 101 100 -87 1
w 101 -100 87 1
w 101 -100 -87 1
w 102 101 88 0.52722
w 102 101 -88 0.478847
w 102 -101 88 0.764565
w 102 -101 -88 0.147513
w 103 102 89 0
w 103 102 -89 0
w 103 -102 89 1
w 103 -102 -89 0
w 104 103 90 0
w 104 103 -90 1
w 104 -103 90 0
w 104 -103 -90 0
w 105 104 91 0.899735
w 105 104 -91 0.668761
w 105 -104 91 0.171549
w 105 -104 -91 0.990209
w 106 105 92 0.601819
w 106 105 -92 0.9832
w 106 -105 92 0.0300131
w 106 -105 -92 0.762998
w 107 106 93 0
w 107 106 -93 0
w 107 -106 93 0
w 107 -106 -93 1
w 108 107 94 0.86444
w 108 107 -94 0.88947
w 108 -107 94 0.000290417
w 108 -107 -94 0.629005
w 109 108 95 1
w 109 108 -95 1
w 109 -108 95 1
w 109 -108 -95 0
w 110 109 96 0
w 110 109 -96 0
w 110 -109 96 1
w 110 -109 -96 0
w 111 110 97 0.219218
w 111 110 -97 0.938436
w 111 -110 97 0.0184257
w 111 -110 -97 0.209428
w 112 111 98 0.620245
w 112 111 -98 0.192628
w 112 -111 98 0.791841
w 112 -111 -98 0.383243
w 113 99 0
w 113 -99 1
w 114 113 100 1
w 114 113 -100 1
w 114 -113 100 0
w 114 -113 -100 0
w 115 114 101 1
w 115 114 -101 0
w 115 -114 101 0
w 115 -114 -101 0
w 116 115 102 0.270826
w 116 115 -102 0.23704
w 116 -115 102 0.866381
w 116 -115 -102 0.621711
w 117 116 103 1
w 117 116 -103 1
w 117 -116 103 0
w 117 -116 -103 1
w 118 117 104 1
w 118 117 -104 1
w 118 -117 104 0
w 118 -117 -104 1
w 119 118 105 0.780425
w 119 118 -105 0.803995
w 119 -118 105 0.964405
w 119 -118 -105 0.689789
w 120 119 106 0.476592
w 120 119 -106 0.961403
w 120 -119 106 0.507391
w 120 -119 -106 0.853218
w 121 120 107 1
w 121 120 -107 1
w 121 -120 107 0
w 121 -120 -107 1
w 122 121 108 0.59138
w 122 121 -108 0.232503
w 122 -121 108 0.433969
w 122 -121 -108 0.213091
w 123 122 109 1
w 123 122 -109 0
w 123 -122 109 0
w 123 -122 -109 0
w 124 123 110 1
w 124 123 -110 1
w 124 -123 110 0
w 124 -123 -110 0
w 125 124 111 1
w 125 124 -111 1
w 125 -124 111 1
w 125 -124 -111 0
w 126 125 112 1
w 126 125 -112 1
w 126 -125 112 1
w 126 -125 -112 0
w 127 113 0
w 127 -113 1
w 128 127 114 0
w 128 127 -114 1
w 128 -127 114 1
w 128 -127 -114 0
w 129 128 115 0.401631
w 129 128 -115 0.433934
w 129 -128 115 0.178085
w 129 -128 -115 0.770804
w 130 129 116 0.717551
w 130 129 -116 0.922059
w 130 -129 116 0.902919
w 130 -129 -116 0.483773
w 131 130 117 0.587458
w 131 130 -117 0.238579
w 131 -130 117 0.246334
w 131 -130 -117 0.834466
w 132 131 118 0.422842
w 132 131 -118 0.0458787
w 132 -131 118 0.998828
w 132 -131 -118 0.494321
w 133 132 119 0.18525
w 133 132 -119 0.0731902
w 133 -132 119 0.275106
w 133 -132 -119 0.494159
w 134 133 120 0.675179
w 134 133 -120 0.123621
w 134 -133 120 0.466596
w 134 -133 -120 0.64284
w 135 134 121 1
w 135 134 -121 0
w 135 -134 121 0
w 135 -134 -121 1
w 136 135 122 0.366619
w 136 135 -122 0.28917
w 136 -135 122 0.737334
w 136 -135 -122 0.269538
w 137 136 123 0.611155
w 137 136 -123 0.856996
w 137 -136 123 0.0115226
w 137 -136 -123 0.857489
w 138 137 124 0.785332
w 138 137 -124 0.280331
w 138 -137 124 0.737341
w 138 -137 -124 0.78416
w 139 138 125 0.471224
w 139 138 -125 0.96941
w 139 -138 125 0.847842
w 139 -138 -125 0.74633
w 140 139 126 0
w 140 139 -126 1
w 140 -139 126 0
w 140 -139 -126 0
w 141 127 1
w 141 -127 0
w 142 141 128 1
w 142 141 -128 1
w 142 -141 128 0
w 142 -141 -128 0
w 143 142 129 0
w 143 142 -129 1
w 143 -142 129 1
w 143 -142 -129 1
w 144 143 130 1
w 144 143 -130 1
w 144 -143 130 1
w 144 -143 -130 0
w 145 144 131 0.410405
w 145 144 -131 0.632011
w 145 -144 131 0.694881
w 145 -144 -131 0.185057
w 146 145 132 0
w 146 145 -132 0
w 146 -145 132 1
w 146 -145 -132 0
w 147 146 133 0.271074
w 147 146 -133 0.71505
w 147 -146 133 0.739501
w 147 -146 -133 0.335423
w 148 147 134 0.219634
w 148 147 -134 0.444244
w 148 -147 134 0.356758
w 148 -147 -134 0.271387
w 149 148 135 0
w 149 148 -135 1
w 149 -148 135 0
w 149 -148 -135 1
w 150 149 136 0.302355
w 150 149 -136 0.98285
w 150 -149 136 0.851565
w 150 -149 -136 0.43243
w 151 150 137 0.762286
w 151 150 -137 0.842835
w 151 -150 137 0.50953
w 151 -150 -137 0.457167
w 152 151 138 0
w 152 151 -138 1
w 152 -151 138 0
w 152 -151 -138 1
w 153 152 139 1
w 153 152 -139 0
w 153 -152 139 1
w 153 -152 -139 0
w 154 153 140 0
w 154 153 -140 0
w 154 -153 140 0
w 154 -153 -140 1
w 155 141 0.401262
w 155 -141 0.556523
w 156 155 142 0.180904
w 156 155 -142 0.282699
w 156 -155 142 0.213535
w 156 -155 -142 0.163754
w 157 156 143 1
w 157 156 -143 0
w 157 -156 143 1
w 157 -156 -143 1
w 158 157 144 0.353718
w 158 157 -144 0.516691
w 158 -157 144 0.163568
w 158 -157 -144 0.475177
w 159 158 145 0.625897
w 159 158 -145 0.724495
w 159 -158 145 0.291173
w 159 -158 -145 0.3593
w 160 159 146 0.744365
w 160 159 -146 0.428126
w 160 -159 146 0.299936
w 160 -159 -146 0.417192
w 161 160 147 0.267766
w 161 160 -147 0.361405
w 161 -160 147 0.822607
w 161 -160 -147 0.669028
w 162 161 148 0.733787
w 162 161 -148 0.849932
w 162 -161 148 0.200628
w 162 -161 -148 0.947322
w 163 162 149 1
w 163 162 -149 1
w 163 -162 149 1
w 163 -162 -149 0
w 164 163 150 0
w 164 163 -150 1
w 164 -163 150 0
w 164 -163 -150 0
w 165 164 151 1
w 165 164 -151 1
w 165 -164 151 1
w 165 -164 -151 0
w 166 165 152 0
w 166 165 -152 0
w 166 -165 152 1
w 166 -165 -152 0
w 167 166 153 1
w 167 166 -153 1
w 167 -166 153 0
w 167 -166 -153 1
w 168 167 154 0.680242
w 168 167 -154 0.560359
w 168 -167 154 0.10895
w 168 -167 -154 0.627564
w 169 155 0.443842
w 169 -155 0.220851
w 170 169 156 0.675286
w 170 169 -156 0.302937
w 170 -169 156 0.234766
w 170 -169 -156 0.260447
w 171 170 157 0.00409615
w 171 170 -157 0.320786
w 171 -170 157 0.0779737
w 171 -170 -157 0.399323
w 172 171 158 1
w 172 171 -158 1
w 172 -171 158 0
w 172 -171 -158 1
w 173 172 159 0
w 173 172 -159 1
w 173 -172 159 0
w 173 -172 -159 1
w 174 173 160 1
w 174 173 -160 0
w 174 -173 160 1
w 174 -173 -160 0
w 175 174 161 0.393856
w 175 174 -161 0.714613
w 175 -174 161 0.239176
w 175 -174 -161 0.837698
w 176 175 162 0.868181
w 176 175 -162 0.512984
w 176 -175 162 0.238401
w 176 -175 -162 0.102947
w 177 176 163 0.140116
w 177 176 -163 0.107043
w 177 -176 163 0.0942169
w 177 -176 -163 0.21809
w 178 177 164 0.199836
w 178 177 -164 0.763495
w 178 -177 164 0.660215
w 178 -177 -164 0.779151
w 179 178 165 0.996716
w 179 178 -165 0.132099
w 179 -178 165 0.906886
w 179 -178 -165 0.457066
w 180 179 166 0.28347
w 180 179 -166 0.863872
w 180 -179 166 0.631217
w 180 -179 -166 0.568376
w 181 180 167 0.296348
w 181 180 -167 0.962232
w 181 -180 167 0.665533
w 181 -180 -167 0.535524
w 182 181 168 0.600997
w 182 181 -168 0.403705
w 182 -181 168 0.312914
w 182 -181 -168 0.839398
w 183 169 0.086345
w 183 -169 0.979514
w 184 183 170 0.180562
w 184 183 -170 0.197604
w 184 -183 170 0.120062
w 184 -183 -170 0.380398
w 185 184 171 0.780276
w 185 184 -171 0.159549
w 185 -184 171 0.481795
w 185 -184 -171 0.776992
w 186 185 172 0
w 186 185 -172 1
w 186 -185 172 1
w 186 -185 -172 1
w 187 186 173 0
w 187 186 -173 0
w 187 -186 173 1
w 187 -186 -173 1
w 188 187 174 1
w 188 187 -174 0
w 188 -187 174 1
w 188 -187 -174 0
w 189 188 175 0.315602
w 189 188 -175 0.154779
w 189 -188 175 0.191539
w 189 -188 -175 0.401947
w 190 189 176 0
w 190 189 -176 1
w 190 -189 176 1
w 190 -189 -176 0
w 191 190 177 0.292995
w 191 190 -177 0.705572
w 191 -190 177 0.122456
w 191 -190 -177 0.77479
w 192 191 178 0
w 192 191 -178 1
w 192 -191 178 0
w 192 -191 -178 1
w 193 192 179 0.814554
w 193 192 -179 0.681506
w 193 -192 179 0.0761473
w 193 -192 -179 0.863405
w 194 193 180 1
w 194 193 -180 1
w 194 -193 180 1
w 194 -193 -180 0
w 195 194 181 0.393231
w 195 194 -181 0.597195
w 195 -194 181 0.047949
w 195 -194 -181 0.584769
w 196 195 182 0.182242
w 196 195 -182 0.390004
w 196 -195 182 0.58165
w 196 -195 -182 0.514138